NAME : bays29.3398.tour
COMMENT : Cost = 698_3398
COMMENT : Found by LKH [Keld Helsgaun] Thu Nov 16 17:25:38 2017
TYPE : TOUR
DIMENSION : 33
TOUR_SECTION
1
16
25
7
23
27
8
32
4
15
14
22
13
31
10
17
18
20
33
6
12
9
5
26
29
3
2
21
30
24
19
11
28
-1
EOF
